# Example from Gomes & Shmoys, page 3
# Solution
#   4 1 2 3
#   2 3 4 1
#   1 4 3 2
#   3 2 1 4
param n := 4;
param m: 1 2 3 4 :=
  1   .  1  2  3 
  2   2  .  4  1  
  3   1  4  .  2 
  4   3  .  1  .
;
